NAME : 100-10-1-i.39608.tour
COMMENT : Length = 39608
COMMENT : Found by LKH-3 [Keld Helsgaun] Tue Dec 17 14:07:00 2024
TYPE : TOUR
DIMENSION : 120
TOUR_SECTION
1
111
2
112
3
74
32
106
102
71
50
35
103
47
19
109
63
36
37
113
4
114
5
40
115
6
116
7
92
82
61
22
29
33
117
8
118
9
57
62
48
60
15
97
45
98
119
10
21
86
66
104
38
53
28
43
85
78
68
39
80
91
16
108
107
88
30
46
96
11
58
18
79
24
64
54
83
87
41
73
49
14
90
77
23
81
27
17
52
72
99
59
26
25
89
55
101
105
56
44
69
75
93
70
20
13
76
12
94
51
34
110
84
95
100
65
31
67
42
120
-1
EOF
